InboundTrucks  = 20;
OutboundTrucks = 13;
InboundDoors   = 5;
OutboundDoors  = 5;
ReleaseTime    = [100,86,10,114,111,72,73,68,62,61,16,112,102,82,40,82,101,82,108,104];
UnloadTime     = [16,22,19,26,13,26,35,24,35,14,27,11,22,42,23,21,31,20,15,45];
LoadTime       = [24,19,27,28,16,9,26,25,20,19,5,28,6];
TransferTime   = [| 17,0,0,0,0,0,0,0,16,0,0,0,16 | 0,43,0,40,0,0,0,0,43,34,0,0,0 | 34,0,0,0,0,0,0,16,0,0,0,0,0 | 0,0,44,29,0,0,0,18,0,0,0,0,12 | 0,0,36,0,0,0,0,0,0,0,0,0,0 | 0,0,0,0,0,0,34,0,0,0,13,0,0 | 48,0,0,0,0,0,0,0,0,0,48,0,10 | 0,0,0,27,0,0,26,0,37,0,0,35,0 | 0,0,19,0,0,0,0,0,17,0,0,0,35 | 0,19,11,0,44,0,0,0,0,0,0,24,0 | 0,0,0,0,38,10,37,0,45,0,0,0,0 | 0,0,0,0,0,28,0,0,39,0,0,50,20 | 0,0,0,0,23,25,0,10,28,0,28,0,0 | 0,0,0,0,0,27,0,0,0,0,0,19,0 | 0,0,0,0,0,0,25,0,0,0,14,0,0 | 47,0,0,16,0,0,0,0,0,0,45,0,44 | 0,47,12,0,22,0,0,0,0,0,26,0,0 | 0,0,0,0,0,0,40,0,0,0,0,43,0 | 0,10,0,0,36,0,0,0,42,12,27,0,38 | 0,0,0,0,0,13,0,0,0,20,0,0,0 |];
